p cnf 15 38
-3 0
2 0
-1 0
7 -10 0
8 -10 0
4 6 12 0
5 10 -15 0
-9 -7 -15 0
9 -10 12 0
-11 12 4 0
13 -15 4 0
-9 15 13 0
-13 -9 -14 0
8 -15 4 0
7 -13 -10 0
-7 9 -6 0
-14 -15 -9 0
11 12 4 0
-15 -6 -8 0
-14 -5 -15 0
9 4 0
-9 -15 -5 0
5 -12 0
-6 11 0
13 -14 6 0
-6 14 0
-9 6 0
-10 -8 -9 0
10 9 11 0
13 -15 11 0
-7 -5 12 0
14 -4 12 0
-10 11 0
-9 -14 0
-14 -15 10 0
-9 -8 12 0
-14 4 0
-11 -12 4 0
